
--- Job WS.gms Start 04/19/25 10:26:02 49.4.0 6fb2fe8b WEX-WEI x86 64bit/MS Windows
--- Applying:
    C:\GAMS\49\gmsprmNT.txt
--- GAMS Parameters defined
    Input D:\gams\Project\WS.gms
    PageSize 0
    ScrDir D:\gams\Project\225a\
    SysDir C:\GAMS\49\
    LogOption 3
    ErrMsg 1
    ErrorLog 99
    IDE 1
    LstTitleLeftAligned 1
Licensee: Academic User                                  G250418+0003Ac-GEN
          xskurl02@vutbr.cz                                       CLA109379
          C:\GAMS\49\gamslice.txt
          node:42640501 v:2                                                
          Community license for demonstration and instructional purposes only
System information: 8 physical cores and 32 Gb memory detected
GAMS 49.4.0   Copyright (C) 1987-2025 GAMS Development. All rights reserved
--- Starting compilation
--- WS.gms(67) 3 Mb
--- Starting execution: elapsed 0:00:00.013
--- WS.gms(28) 4 Mb
--- Generating LP model vyroba
--- WS.gms(35) 4 Mb
---   5 rows  4 columns  16 non-zeroes
--- Range statistics (absolute non-zero finite values)
--- RHS       [min, max] : [ 5.400E+03, 9.600E+03] - Zero values observed as well
--- Bound     [min, max] : [        NA,        NA] - Zero values observed as well
--- Matrix    [min, max] : [ 1.000E+00, 1.550E+02]
--- Executing CPLEX (Solvelink=2): elapsed 0:00:00.016

IBM ILOG CPLEX   49.4.0 6fb2fe8b Apr 6, 2025           WEI x86 64bit/MS Window

*** This solver runs with a community license. No commercial use.
--- GMO setup time: 0.00s
--- GMO memory 0.50 Mb (peak 0.50 Mb)
--- Dictionary memory 0.00 Mb
--- Cplex 22.1.2.0 link memory 0.00 Mb (peak 0.00 Mb)
--- Starting Cplex

Version identifier: 22.1.2.0 | 2024-11-25 | 0edbb82fd
CPXPARAM_Advance                                 0
CPXPARAM_Simplex_Display                         2
CPXPARAM_MIP_Display                             4
CPXPARAM_MIP_Pool_Capacity                       0
CPXPARAM_MIP_Tolerances_AbsMIPGap                0
Tried aggregator 1 time.
LP Presolve eliminated 1 rows and 1 columns.
Reduced LP has 3 rows, 3 columns, and 9 nonzeros.
Presolve time = 0.00 sec. (0.00 ticks)

Iteration      Dual Objective            In Variable           Out Variable
     1 sI            0.000000                   x(3)          omez(3) slack

--- LP status (1): optimal.
--- Cplex Time: 0.00sec (det. 0.01 ticks)


Optimal solution found
Objective:        24617.647059

--- Reading solution for model vyroba
--- Executing after solve: elapsed 0:00:00.058
--- WS.gms(48) 4 Mb
--- Generating LP model vyroba
--- WS.gms(51) 4 Mb
--- LOOPS s = 1
---   5 rows  4 columns  16 non-zeroes
--- Range statistics (absolute non-zero finite values)
--- RHS       [min, max] : [ 5.763E+03, 8.634E+03] - Zero values observed as well
--- Bound     [min, max] : [        NA,        NA] - Zero values observed as well
--- Matrix    [min, max] : [ 9.326E-01, 3.188E+01]
--- Executing CPLEX (Solvelink=2): elapsed 0:00:00.060

IBM ILOG CPLEX   49.4.0 6fb2fe8b Apr 6, 2025           WEI x86 64bit/MS Window

*** This solver runs with a community license. No commercial use.
--- GMO setup time: 0.00s
--- GMO memory 0.50 Mb (peak 0.50 Mb)
--- Dictionary memory 0.00 Mb
--- Cplex 22.1.2.0 link memory 0.00 Mb (peak 0.00 Mb)
--- Starting Cplex

Version identifier: 22.1.2.0 | 2024-11-25 | 0edbb82fd
CPXPARAM_Advance                                 2
CPXPARAM_Simplex_Display                         2
CPXPARAM_MIP_Display                             4
CPXPARAM_MIP_Pool_Capacity                       0
CPXPARAM_MIP_Tolerances_AbsMIPGap                0
Tried aggregator 1 time.
LP Presolve eliminated 0 rows and 1 columns.
Reduced LP has 4 rows, 3 columns, and 12 nonzeros.
Presolve time = 0.00 sec. (0.00 ticks)

Iteration      Dual Objective            In Variable           Out Variable
     1  I            0.000000                   x(1)          omez(2) slack
     2          147577.175075                   x(2)          omez(4) slack

--- LP status (1): optimal.
--- Cplex Time: 0.00sec (det. 0.02 ticks)


Optimal solution found
Objective:       147577.175075

--- Reading solution for model vyroba
--- Executing after solve: elapsed 0:00:00.101
--- WS.gms(48) 4 Mb
--- Generating LP model vyroba
--- WS.gms(51) 4 Mb
--- LOOPS s = 2
---   5 rows  4 columns  16 non-zeroes
--- Range statistics (absolute non-zero finite values)
--- RHS       [min, max] : [ 5.831E+03, 8.112E+03] - Zero values observed as well
--- Bound     [min, max] : [        NA,        NA] - Zero values observed as well
--- Matrix    [min, max] : [ 9.578E-01, 3.445E+01]
--- Executing CPLEX (Solvelink=2): elapsed 0:00:00.103

IBM ILOG CPLEX   49.4.0 6fb2fe8b Apr 6, 2025           WEI x86 64bit/MS Window

*** This solver runs with a community license. No commercial use.
--- GMO setup time: 0.00s
--- GMO memory 0.50 Mb (peak 0.50 Mb)
--- Dictionary memory 0.00 Mb
--- Cplex 22.1.2.0 link memory 0.00 Mb (peak 0.00 Mb)
--- Starting Cplex

Version identifier: 22.1.2.0 | 2024-11-25 | 0edbb82fd
CPXPARAM_Advance                                 2
CPXPARAM_Simplex_Display                         2
CPXPARAM_MIP_Display                             4
CPXPARAM_MIP_Pool_Capacity                       0
CPXPARAM_MIP_Tolerances_AbsMIPGap                0
Tried aggregator 1 time.
LP Presolve eliminated 0 rows and 1 columns.
Reduced LP has 4 rows, 3 columns, and 12 nonzeros.
Presolve time = 0.00 sec. (0.00 ticks)

Iteration      Dual Objective            In Variable           Out Variable
     1  I            0.000000                   x(2)          omez(1) slack
     2          124039.867063                   x(3)          omez(2) slack
     3          117077.493189                   x(1)          omez(4) slack
     4          115705.341480          omez(1) slack                   x(2)

--- LP status (1): optimal.
--- Cplex Time: 0.00sec (det. 0.02 ticks)


Optimal solution found
Objective:       115705.341480

--- Reading solution for model vyroba
--- Executing after solve: elapsed 0:00:00.146
--- WS.gms(48) 4 Mb
--- Generating LP model vyroba
--- WS.gms(51) 4 Mb
--- LOOPS s = 3
---   5 rows  4 columns  16 non-zeroes
--- Range statistics (absolute non-zero finite values)
--- RHS       [min, max] : [ 6.592E+03, 8.177E+03] - Zero values observed as well
--- Bound     [min, max] : [        NA,        NA] - Zero values observed as well
--- Matrix    [min, max] : [ 8.805E-01, 3.256E+01]
--- Executing CPLEX (Solvelink=2): elapsed 0:00:00.147

IBM ILOG CPLEX   49.4.0 6fb2fe8b Apr 6, 2025           WEI x86 64bit/MS Window

*** This solver runs with a community license. No commercial use.
--- GMO setup time: 0.00s
--- GMO memory 0.50 Mb (peak 0.50 Mb)
--- Dictionary memory 0.00 Mb
--- Cplex 22.1.2.0 link memory 0.00 Mb (peak 0.00 Mb)
--- Starting Cplex

Version identifier: 22.1.2.0 | 2024-11-25 | 0edbb82fd
CPXPARAM_Advance                                 2
CPXPARAM_Simplex_Display                         2
CPXPARAM_MIP_Display                             4
CPXPARAM_MIP_Pool_Capacity                       0
CPXPARAM_MIP_Tolerances_AbsMIPGap                0
Tried aggregator 1 time.
LP Presolve eliminated 0 rows and 1 columns.
Reduced LP has 4 rows, 3 columns, and 12 nonzeros.
Presolve time = 0.00 sec. (0.00 ticks)

Iteration      Dual Objective            In Variable           Out Variable
     1  I            0.000000                   x(3)          omez(2) slack
     2          175765.223380                   x(1)          omez(3) slack
     3          174035.109253          omez(2) slack          omez(1) slack

--- LP status (1): optimal.
--- Cplex Time: 0.00sec (det. 0.02 ticks)


Optimal solution found
Objective:       174035.109253

--- Reading solution for model vyroba
--- Executing after solve: elapsed 0:00:00.189
--- WS.gms(67) 4 Mb
--- Putfile out D:\gams\Project\Vysledky.txt
*** Status: Normal completion
--- Job WS.gms Stop 04/19/25 10:26:02 elapsed 0:00:00.189
